c description: Perfect Matching Principle on 
c generator: CNFgen (0.9.0)
c copyright: (C) 2012-2020 Massimo Lauria <massimo.lauria@uniroma1.it>
c url: https://massimolauria.net/cnfgen
c
p cnf 160 1279
-1 -2 0
-1 -3 0
-1 -4 0
-1 -5 0
-1 -6 0
-1 -7 0
-1 -8 0
-1 -9 0
-2 -3 0
-2 -4 0
-2 -5 0
-2 -6 0
-2 -7 0
-2 -8 0
-2 -9 0
-3 -4 0
-3 -5 0
-3 -6 0
-3 -7 0
-3 -8 0
-3 -9 0
-4 -5 0
-4 -6 0
-4 -7 0
-4 -8 0
-4 -9 0
-5 -6 0
-5 -7 0
-5 -8 0
-5 -9 0
-6 -7 0
-6 -8 0
-6 -9 0
-7 -8 0
-7 -9 0
-8 -9 0
1 2 3 4 5 6 7 8 9 0
-10 -11 0
-10 -12 0
-11 -12 0
10 11 12 0
-13 -14 0
-13 -15 0
-13 -16 0
-13 -17 0
-13 -18 0
-13 -19 0
-13 -20 0
-14 -15 0
-14 -16 0
-14 -17 0
-14 -18 0
-14 -19 0
-14 -20 0
-15 -16 0
-15 -17 0
-15 -18 0
-15 -19 0
-15 -20 0
-16 -17 0
-16 -18 0
-16 -19 0
-16 -20 0
-17 -18 0
-17 -19 0
-17 -20 0
-18 -19 0
-18 -20 0
-19 -20 0
13 14 15 16 17 18 19 20 0
-21 -22 0
-21 -23 0
-22 -23 0
21 22 23 0
-24 -25 0
-24 -26 0
-24 -27 0
-24 -28 0
-24 -29 0
-24 -30 0
-24 -31 0
-24 -32 0
-25 -26 0
-25 -27 0
-25 -28 0
-25 -29 0
-25 -30 0
-25 -31 0
-25 -32 0
-26 -27 0
-26 -28 0
-26 -29 0
-26 -30 0
-26 -31 0
-26 -32 0
-27 -28 0
-27 -29 0
-27 -30 0
-27 -31 0
-27 -32 0
-28 -29 0
-28 -30 0
-28 -31 0
-28 -32 0
-29 -30 0
-29 -31 0
-29 -32 0
-30 -31 0
-30 -32 0
-31 -32 0
24 25 26 27 28 29 30 31 32 0
-1 -21 0
-1 -33 0
-1 -34 0
-1 -35 0
-1 -36 0
-1 -37 0
-1 -38 0
-1 -39 0
-1 -40 0
-21 -33 0
-21 -34 0
-21 -35 0
-21 -36 0
-21 -37 0
-21 -38 0
-21 -39 0
-21 -40 0
-33 -34 0
-33 -35 0
-33 -36 0
-33 -37 0
-33 -38 0
-33 -39 0
-33 -40 0
-34 -35 0
-34 -36 0
-34 -37 0
-34 -38 0
-34 -39 0
-34 -40 0
-35 -36 0
-35 -37 0
-35 -38 0
-35 -39 0
-35 -40 0
-36 -37 0
-36 -38 0
-36 -39 0
-36 -40 0
-37 -38 0
-37 -39 0
-37 -40 0
-38 -39 0
-38 -40 0
-39 -40 0
1 21 33 34 35 36 37 38 39 40 0
-2 -24 0
-2 -41 0
-2 -42 0
-2 -43 0
-2 -44 0
-2 -45 0
-2 -46 0
-24 -41 0
-24 -42 0
-24 -43 0
-24 -44 0
-24 -45 0
-24 -46 0
-41 -42 0
-41 -43 0
-41 -44 0
-41 -45 0
-41 -46 0
-42 -43 0
-42 -44 0
-42 -45 0
-42 -46 0
-43 -44 0
-43 -45 0
-43 -46 0
-44 -45 0
-44 -46 0
-45 -46 0
2 24 41 42 43 44 45 46 0
-41 -47 0
-41 -48 0
-41 -49 0
-41 -50 0
-41 -51 0
-47 -48 0
-47 -49 0
-47 -50 0
-47 -51 0
-48 -49 0
-48 -50 0
-48 -51 0
-49 -50 0
-49 -51 0
-50 -51 0
41 47 48 49 50 51 0
-33 -42 0
-33 -52 0
-33 -53 0
-33 -54 0
-33 -55 0
-33 -56 0
-33 -57 0
-33 -58 0
-42 -52 0
-42 -53 0
-42 -54 0
-42 -55 0
-42 -56 0
-42 -57 0
-42 -58 0
-52 -53 0
-52 -54 0
-52 -55 0
-52 -56 0
-52 -57 0
-52 -58 0
-53 -54 0
-53 -55 0
-53 -56 0
-53 -57 0
-53 -58 0
-54 -55 0
-54 -56 0
-54 -57 0
-54 -58 0
-55 -56 0
-55 -57 0
-55 -58 0
-56 -57 0
-56 -58 0
-57 -58 0
33 42 52 53 54 55 56 57 58 0
-25 -34 0
-25 -47 0
-25 -59 0
-25 -60 0
-25 -61 0
-25 -62 0
-25 -63 0
-25 -64 0
-34 -47 0
-34 -59 0
-34 -60 0
-34 -61 0
-34 -62 0
-34 -63 0
-34 -64 0
-47 -59 0
-47 -60 0
-47 -61 0
-47 -62 0
-47 -63 0
-47 -64 0
-59 -60 0
-59 -61 0
-59 -62 0
-59 -63 0
-59 -64 0
-60 -61 0
-60 -62 0
-60 -63 0
-60 -64 0
-61 -62 0
-61 -63 0
-61 -64 0
-62 -63 0
-62 -64 0
-63 -64 0
25 34 47 59 60 61 62 63 64 0
-13 -26 0
-13 -65 0
-13 -66 0
-13 -67 0
-13 -68 0
-13 -69 0
-13 -70 0
-13 -71 0
-13 -72 0
-26 -65 0
-26 -66 0
-26 -67 0
-26 -68 0
-26 -69 0
-26 -70 0
-26 -71 0
-26 -72 0
-65 -66 0
-65 -67 0
-65 -68 0
-65 -69 0
-65 -70 0
-65 -71 0
-65 -72 0
-66 -67 0
-66 -68 0
-66 -69 0
-66 -70 0
-66 -71 0
-66 -72 0
-67 -68 0
-67 -69 0
-67 -70 0
-67 -71 0
-67 -72 0
-68 -69 0
-68 -70 0
-68 -71 0
-68 -72 0
-69 -70 0
-69 -71 0
-69 -72 0
-70 -71 0
-70 -72 0
-71 -72 0
13 26 65 66 67 68 69 70 71 72 0
-3 -27 0
-3 -35 0
-3 -48 0
-3 -73 0
-3 -74 0
-3 -75 0
-3 -76 0
-27 -35 0
-27 -48 0
-27 -73 0
-27 -74 0
-27 -75 0
-27 -76 0
-35 -48 0
-35 -73 0
-35 -74 0
-35 -75 0
-35 -76 0
-48 -73 0
-48 -74 0
-48 -75 0
-48 -76 0
-73 -74 0
-73 -75 0
-73 -76 0
-74 -75 0
-74 -76 0
-75 -76 0
3 27 35 48 73 74 75 76 0
-10 -14 0
-10 -28 0
-10 -43 0
-10 -52 0
-10 -59 0
-10 -73 0
-10 -77 0
-10 -78 0
-10 -79 0
-10 -80 0
-10 -81 0
-10 -82 0
-10 -83 0
-10 -84 0
-14 -28 0
-14 -43 0
-14 -52 0
-14 -59 0
-14 -73 0
-14 -77 0
-14 -78 0
-14 -79 0
-14 -80 0
-14 -81 0
-14 -82 0
-14 -83 0
-14 -84 0
-28 -43 0
-28 -52 0
-28 -59 0
-28 -73 0
-28 -77 0
-28 -78 0
-28 -79 0
-28 -80 0
-28 -81 0
-28 -82 0
-28 -83 0
-28 -84 0
-43 -52 0
-43 -59 0
-43 -73 0
-43 -77 0
-43 -78 0
-43 -79 0
-43 -80 0
-43 -81 0
-43 -82 0
-43 -83 0
-43 -84 0
-52 -59 0
-52 -73 0
-52 -77 0
-52 -78 0
-52 -79 0
-52 -80 0
-52 -81 0
-52 -82 0
-52 -83 0
-52 -84 0
-59 -73 0
-59 -77 0
-59 -78 0
-59 -79 0
-59 -80 0
-59 -81 0
-59 -82 0
-59 -83 0
-59 -84 0
-73 -77 0
-73 -78 0
-73 -79 0
-73 -80 0
-73 -81 0
-73 -82 0
-73 -83 0
-73 -84 0
-77 -78 0
-77 -79 0
-77 -80 0
-77 -81 0
-77 -82 0
-77 -83 0
-77 -84 0
-78 -79 0
-78 -80 0
-78 -81 0
-78 -82 0
-78 -83 0
-78 -84 0
-79 -80 0
-79 -81 0
-79 -82 0
-79 -83 0
-79 -84 0
-80 -81 0
-80 -82 0
-80 -83 0
-80 -84 0
-81 -82 0
-81 -83 0
-81 -84 0
-82 -83 0
-82 -84 0
-83 -84 0
10 14 28 43 52 59 73 77 78 79 80 81 82 83 84 0
-15 -65 0
-15 -85 0
-15 -86 0
-15 -87 0
-15 -88 0
-15 -89 0
-15 -90 0
-15 -91 0
-15 -92 0
-15 -93 0
-15 -94 0
-15 -95 0
-65 -85 0
-65 -86 0
-65 -87 0
-65 -88 0
-65 -89 0
-65 -90 0
-65 -91 0
-65 -92 0
-65 -93 0
-65 -94 0
-65 -95 0
-85 -86 0
-85 -87 0
-85 -88 0
-85 -89 0
-85 -90 0
-85 -91 0
-85 -92 0
-85 -93 0
-85 -94 0
-85 -95 0
-86 -87 0
-86 -88 0
-86 -89 0
-86 -90 0
-86 -91 0
-86 -92 0
-86 -93 0
-86 -94 0
-86 -95 0
-87 -88 0
-87 -89 0
-87 -90 0
-87 -91 0
-87 -92 0
-87 -93 0
-87 -94 0
-87 -95 0
-88 -89 0
-88 -90 0
-88 -91 0
-88 -92 0
-88 -93 0
-88 -94 0
-88 -95 0
-89 -90 0
-89 -91 0
-89 -92 0
-89 -93 0
-89 -94 0
-89 -95 0
-90 -91 0
-90 -92 0
-90 -93 0
-90 -94 0
-90 -95 0
-91 -92 0
-91 -93 0
-91 -94 0
-91 -95 0
-92 -93 0
-92 -94 0
-92 -95 0
-93 -94 0
-93 -95 0
-94 -95 0
15 65 85 86 87 88 89 90 91 92 93 94 95 0
-66 -96 0
-66 -97 0
-66 -98 0
-66 -99 0
-66 -100 0
-66 -101 0
-66 -102 0
-96 -97 0
-96 -98 0
-96 -99 0
-96 -100 0
-96 -101 0
-96 -102 0
-97 -98 0
-97 -99 0
-97 -100 0
-97 -101 0
-97 -102 0
-98 -99 0
-98 -100 0
-98 -101 0
-98 -102 0
-99 -100 0
-99 -101 0
-99 -102 0
-100 -101 0
-100 -102 0
-101 -102 0
66 96 97 98 99 100 101 102 0
-4 -53 0
-4 -74 0
-4 -77 0
-4 -85 0
-4 -96 0
-4 -103 0
-4 -104 0
-4 -105 0
-4 -106 0
-4 -107 0
-53 -74 0
-53 -77 0
-53 -85 0
-53 -96 0
-53 -103 0
-53 -104 0
-53 -105 0
-53 -106 0
-53 -107 0
-74 -77 0
-74 -85 0
-74 -96 0
-74 -103 0
-74 -104 0
-74 -105 0
-74 -106 0
-74 -107 0
-77 -85 0
-77 -96 0
-77 -103 0
-77 -104 0
-77 -105 0
-77 -106 0
-77 -107 0
-85 -96 0
-85 -103 0
-85 -104 0
-85 -105 0
-85 -106 0
-85 -107 0
-96 -103 0
-96 -104 0
-96 -105 0
-96 -106 0
-96 -107 0
-103 -104 0
-103 -105 0
-103 -106 0
-103 -107 0
-104 -105 0
-104 -106 0
-104 -107 0
-105 -106 0
-105 -107 0
-106 -107 0
4 53 74 77 85 96 103 104 105 106 107 0
-16 -29 0
-16 -67 0
-16 -78 0
-16 -86 0
-16 -108 0
-16 -109 0
-16 -110 0
-16 -111 0
-16 -112 0
-29 -67 0
-29 -78 0
-29 -86 0
-29 -108 0
-29 -109 0
-29 -110 0
-29 -111 0
-29 -112 0
-67 -78 0
-67 -86 0
-67 -108 0
-67 -109 0
-67 -110 0
-67 -111 0
-67 -112 0
-78 -86 0
-78 -108 0
-78 -109 0
-78 -110 0
-78 -111 0
-78 -112 0
-86 -108 0
-86 -109 0
-86 -110 0
-86 -111 0
-86 -112 0
-108 -109 0
-108 -110 0
-108 -111 0
-108 -112 0
-109 -110 0
-109 -111 0
-109 -112 0
-110 -111 0
-110 -112 0
-111 -112 0
16 29 67 78 86 108 109 110 111 112 0
-22 -68 0
-22 -113 0
-22 -114 0
-68 -113 0
-68 -114 0
-113 -114 0
22 68 113 114 0
-79 -87 0
-79 -103 0
-79 -115 0
-79 -116 0
-79 -117 0
-79 -118 0
-79 -119 0
-79 -120 0
-87 -103 0
-87 -115 0
-87 -116 0
-87 -117 0
-87 -118 0
-87 -119 0
-87 -120 0
-103 -115 0
-103 -116 0
-103 -117 0
-103 -118 0
-103 -119 0
-103 -120 0
-115 -116 0
-115 -117 0
-115 -118 0
-115 -119 0
-115 -120 0
-116 -117 0
-116 -118 0
-116 -119 0
-116 -120 0
-117 -118 0
-117 -119 0
-117 -120 0
-118 -119 0
-118 -120 0
-119 -120 0
79 87 103 115 116 117 118 119 120 0
-88 -97 0
-88 -121 0
-88 -122 0
-88 -123 0
-88 -124 0
-88 -125 0
-88 -126 0
-97 -121 0
-97 -122 0
-97 -123 0
-97 -124 0
-97 -125 0
-97 -126 0
-121 -122 0
-121 -123 0
-121 -124 0
-121 -125 0
-121 -126 0
-122 -123 0
-122 -124 0
-122 -125 0
-122 -126 0
-123 -124 0
-123 -125 0
-123 -126 0
-124 -125 0
-124 -126 0
-125 -126 0
88 97 121 122 123 124 125 126 0
-80 -108 0
-80 -121 0
-80 -127 0
-80 -128 0
-80 -129 0
-108 -121 0
-108 -127 0
-108 -128 0
-108 -129 0
-121 -127 0
-121 -128 0
-121 -129 0
-127 -128 0
-127 -129 0
-128 -129 0
80 108 121 127 128 129 0
-49 -60 0
-49 -75 0
-49 -122 0
-49 -130 0
-49 -131 0
-49 -132 0
-49 -133 0
-49 -134 0
-49 -135 0
-60 -75 0
-60 -122 0
-60 -130 0
-60 -131 0
-60 -132 0
-60 -133 0
-60 -134 0
-60 -135 0
-75 -122 0
-75 -130 0
-75 -131 0
-75 -132 0
-75 -133 0
-75 -134 0
-75 -135 0
-122 -130 0
-122 -131 0
-122 -132 0
-122 -133 0
-122 -134 0
-122 -135 0
-130 -131 0
-130 -132 0
-130 -133 0
-130 -134 0
-130 -135 0
-131 -132 0
-131 -133 0
-131 -134 0
-131 -135 0
-132 -133 0
-132 -134 0
-132 -135 0
-133 -134 0
-133 -135 0
-134 -135 0
49 60 75 122 130 131 132 133 134 135 0
-54 -89 0
-54 -104 0
-54 -115 0
-54 -136 0
-54 -137 0
-54 -138 0
-89 -104 0
-89 -115 0
-89 -136 0
-89 -137 0
-89 -138 0
-104 -115 0
-104 -136 0
-104 -137 0
-104 -138 0
-115 -136 0
-115 -137 0
-115 -138 0
-136 -137 0
-136 -138 0
-137 -138 0
54 89 104 115 136 137 138 0
-36 -81 0
-36 -90 0
-36 -139 0
-36 -140 0
-36 -141 0
-81 -90 0
-81 -139 0
-81 -140 0
-81 -141 0
-90 -139 0
-90 -140 0
-90 -141 0
-139 -140 0
-139 -141 0
-140 -141 0
36 81 90 139 140 141 0
-30 -37 0
-30 -98 0
-30 -116 0
-30 -142 0
-30 -143 0
-37 -98 0
-37 -116 0
-37 -142 0
-37 -143 0
-98 -116 0
-98 -142 0
-98 -143 0
-116 -142 0
-116 -143 0
-142 -143 0
30 37 98 116 142 143 0
-5 -11 0
-5 -17 0
-5 -38 0
-5 -69 0
-5 -123 0
-5 -130 0
-5 -144 0
-5 -145 0
-5 -146 0
-5 -147 0
-11 -17 0
-11 -38 0
-11 -69 0
-11 -123 0
-11 -130 0
-11 -144 0
-11 -145 0
-11 -146 0
-11 -147 0
-17 -38 0
-17 -69 0
-17 -123 0
-17 -130 0
-17 -144 0
-17 -145 0
-17 -146 0
-17 -147 0
-38 -69 0
-38 -123 0
-38 -130 0
-38 -144 0
-38 -145 0
-38 -146 0
-38 -147 0
-69 -123 0
-69 -130 0
-69 -144 0
-69 -145 0
-69 -146 0
-69 -147 0
-123 -130 0
-123 -144 0
-123 -145 0
-123 -146 0
-123 -147 0
-130 -144 0
-130 -145 0
-130 -146 0
-130 -147 0
-144 -145 0
-144 -146 0
-144 -147 0
-145 -146 0
-145 -147 0
-146 -147 0
5 11 17 38 69 123 130 144 145 146 147 0
-55 -61 0
-55 -82 0
-55 -99 0
-55 -109 0
-55 -117 0
-55 -148 0
-55 -149 0
-61 -82 0
-61 -99 0
-61 -109 0
-61 -117 0
-61 -148 0
-61 -149 0
-82 -99 0
-82 -109 0
-82 -117 0
-82 -148 0
-82 -149 0
-99 -109 0
-99 -117 0
-99 -148 0
-99 -149 0
-109 -117 0
-109 -148 0
-109 -149 0
-117 -148 0
-117 -149 0
-148 -149 0
55 61 82 99 109 117 148 149 0
-12 -39 0
-12 -56 0
-12 -91 0
-12 -100 0
-12 -124 0
-12 -142 0
-12 -150 0
-12 -151 0
-12 -152 0
-39 -56 0
-39 -91 0
-39 -100 0
-39 -124 0
-39 -142 0
-39 -150 0
-39 -151 0
-39 -152 0
-56 -91 0
-56 -100 0
-56 -124 0
-56 -142 0
-56 -150 0
-56 -151 0
-56 -152 0
-91 -100 0
-91 -124 0
-91 -142 0
-91 -150 0
-91 -151 0
-91 -152 0
-100 -124 0
-100 -142 0
-100 -150 0
-100 -151 0
-100 -152 0
-124 -142 0
-124 -150 0
-124 -151 0
-124 -152 0
-142 -150 0
-142 -151 0
-142 -152 0
-150 -151 0
-150 -152 0
-151 -152 0
12 39 56 91 100 124 142 150 151 152 0
-57 -70 0
-57 -143 0
-70 -143 0
57 70 143 0
-6 -31 0
-6 -92 0
-6 -125 0
-6 -127 0
-6 -144 0
-6 -153 0
-31 -92 0
-31 -125 0
-31 -127 0
-31 -144 0
-31 -153 0
-92 -125 0
-92 -127 0
-92 -144 0
-92 -153 0
-125 -127 0
-125 -144 0
-125 -153 0
-127 -144 0
-127 -153 0
-144 -153 0
6 31 92 125 127 144 153 0
-18 -50 0
-18 -62 0
-18 -110 0
-18 -131 0
-18 -150 0
-18 -154 0
-50 -62 0
-50 -110 0
-50 -131 0
-50 -150 0
-50 -154 0
-62 -110 0
-62 -131 0
-62 -150 0
-62 -154 0
-110 -131 0
-110 -150 0
-110 -154 0
-131 -150 0
-131 -154 0
-150 -154 0
18 50 62 110 131 150 154 0
-19 -63 0
-19 -105 0
-19 -139 0
-19 -145 0
-19 -148 0
-19 -155 0
-63 -105 0
-63 -139 0
-63 -145 0
-63 -148 0
-63 -155 0
-105 -139 0
-105 -145 0
-105 -148 0
-105 -155 0
-139 -145 0
-139 -148 0
-139 -155 0
-145 -148 0
-145 -155 0
-148 -155 0
19 63 105 139 145 148 155 0
-71 -93 0
-71 -113 0
-71 -118 0
-71 -136 0
-71 -140 0
-71 -156 0
-71 -157 0
-71 -158 0
-93 -113 0
-93 -118 0
-93 -136 0
-93 -140 0
-93 -156 0
-93 -157 0
-93 -158 0
-113 -118 0
-113 -136 0
-113 -140 0
-113 -156 0
-113 -157 0
-113 -158 0
-118 -136 0
-118 -140 0
-118 -156 0
-118 -157 0
-118 -158 0
-136 -140 0
-136 -156 0
-136 -157 0
-136 -158 0
-140 -156 0
-140 -157 0
-140 -158 0
-156 -157 0
-156 -158 0
-157 -158 0
71 93 113 118 136 140 156 157 158 0
-44 -58 0
-44 -111 0
-44 -119 0
-44 -128 0
-44 -156 0
-44 -159 0
-58 -111 0
-58 -119 0
-58 -128 0
-58 -156 0
-58 -159 0
-111 -119 0
-111 -128 0
-111 -156 0
-111 -159 0
-119 -128 0
-119 -156 0
-119 -159 0
-128 -156 0
-128 -159 0
-156 -159 0
44 58 111 119 128 156 159 0
-51 -64 0
-51 -132 0
-51 -137 0
-51 -151 0
-51 -159 0
-64 -132 0
-64 -137 0
-64 -151 0
-64 -159 0
-132 -137 0
-132 -151 0
-132 -159 0
-137 -151 0
-137 -159 0
-151 -159 0
51 64 132 137 151 159 0
-7 -20 0
-7 -40 0
-7 -76 0
-7 -94 0
-7 -133 0
-7 -155 0
-20 -40 0
-20 -76 0
-20 -94 0
-20 -133 0
-20 -155 0
-40 -76 0
-40 -94 0
-40 -133 0
-40 -155 0
-76 -94 0
-76 -133 0
-76 -155 0
-94 -133 0
-94 -155 0
-133 -155 0
7 20 40 76 94 133 155 0
-23 -45 0
-23 -83 0
-23 -95 0
-23 -114 0
-23 -126 0
-23 -134 0
-23 -146 0
-23 -152 0
-45 -83 0
-45 -95 0
-45 -114 0
-45 -126 0
-45 -134 0
-45 -146 0
-45 -152 0
-83 -95 0
-83 -114 0
-83 -126 0
-83 -134 0
-83 -146 0
-83 -152 0
-95 -114 0
-95 -126 0
-95 -134 0
-95 -146 0
-95 -152 0
-114 -126 0
-114 -134 0
-114 -146 0
-114 -152 0
-126 -134 0
-126 -146 0
-126 -152 0
-134 -146 0
-134 -152 0
-146 -152 0
23 45 83 95 114 126 134 146 152 0
-8 -72 0
-8 -84 0
-8 -106 0
-8 -120 0
-8 -149 0
-8 -153 0
-8 -157 0
-8 -160 0
-72 -84 0
-72 -106 0
-72 -120 0
-72 -149 0
-72 -153 0
-72 -157 0
-72 -160 0
-84 -106 0
-84 -120 0
-84 -149 0
-84 -153 0
-84 -157 0
-84 -160 0
-106 -120 0
-106 -149 0
-106 -153 0
-106 -157 0
-106 -160 0
-120 -149 0
-120 -153 0
-120 -157 0
-120 -160 0
-149 -153 0
-149 -157 0
-149 -160 0
-153 -157 0
-153 -160 0
-157 -160 0
8 72 84 106 120 149 153 157 160 0
-9 -32 0
-9 -101 0
-9 -107 0
-9 -135 0
-9 -138 0
-9 -154 0
-9 -160 0
-32 -101 0
-32 -107 0
-32 -135 0
-32 -138 0
-32 -154 0
-32 -160 0
-101 -107 0
-101 -135 0
-101 -138 0
-101 -154 0
-101 -160 0
-107 -135 0
-107 -138 0
-107 -154 0
-107 -160 0
-135 -138 0
-135 -154 0
-135 -160 0
-138 -154 0
-138 -160 0
-154 -160 0
9 32 101 107 135 138 154 160 0
-46 -102 0
-46 -112 0
-46 -129 0
-46 -141 0
-46 -147 0
-46 -158 0
-102 -112 0
-102 -129 0
-102 -141 0
-102 -147 0
-102 -158 0
-112 -129 0
-112 -141 0
-112 -147 0
-112 -158 0
-129 -141 0
-129 -147 0
-129 -158 0
-141 -147 0
-141 -158 0
-147 -158 0
46 102 112 129 141 147 158 0